solution status: optimal solution found
objective value:                                   16
x73                                                 1 	(obj:1)
x74                                                 1 	(obj:1)
x79                                                 1 	(obj:1)
x80                                                 1 	(obj:1)
x82                                                 1 	(obj:1)
x89                                                 1 	(obj:1)
x91                                                 1 	(obj:1)
x94                                                 1 	(obj:1)
x103                                                1 	(obj:1)
x106                                                1 	(obj:1)
x107                                                1 	(obj:1)
x114                                                1 	(obj:1)
x118                                                1 	(obj:1)
x123                                                1 	(obj:1)
x132                                                1 	(obj:1)
x144                                                1 	(obj:1)
$_116_y                                             1 	(obj:0)
$_116_z                                            18 	(obj:0)
$_17_y                                             -4 	(obj:0)
$_17_z                                             12 	(obj:0)
$_92_y                                              1 	(obj:0)
$_92_z                                             20 	(obj:0)
$_16_y                                             -2 	(obj:0)
$_16_z                                             12 	(obj:0)
$_126_y                                            -2 	(obj:0)
$_126_z                                            16 	(obj:0)
$_88_y                                             -3 	(obj:0)
$_88_z                                             18 	(obj:0)
$_112_y                                            -2 	(obj:0)
$_112_z                                            17 	(obj:0)
$_129_y                                             1 	(obj:0)
$_129_z                                            17 	(obj:0)
$_7_y                                              -5 	(obj:0)
$_7_z                                              13 	(obj:0)
$_101_y                                            -3 	(obj:0)
$_101_z                                            14 	(obj:0)
$_136_y                                            -1 	(obj:0)
$_136_z                                            17 	(obj:0)
$_128_y                                             1 	(obj:0)
$_128_z                                            19 	(obj:0)
$_117_y                                            -2 	(obj:0)
$_117_z                                            18 	(obj:0)
$_140_y                                             2 	(obj:0)
$_140_z                                            18 	(obj:0)
$_100_y                                            -5 	(obj:0)
$_100_z                                            14 	(obj:0)
$_102_y                                            -1 	(obj:0)
$_102_z                                            14 	(obj:0)
$_89_y                                             -2 	(obj:0)
$_89_z                                             15 	(obj:0)
$_118_z                                            18 	(obj:0)
$_2_y                                              -1 	(obj:0)
$_2_z                                              12 	(obj:0)
$_104_y                                            -3 	(obj:0)
$_104_z                                            17 	(obj:0)
$_9_z                                              14 	(obj:0)
$_125_y                                            -2 	(obj:0)
$_125_z                                            14 	(obj:0)
$_77_y                                             -2 	(obj:0)
$_77_z                                             19 	(obj:0)
$_127_y                                             1 	(obj:0)
$_127_z                                            16 	(obj:0)
$_18_y                                             -4 	(obj:0)
$_18_z                                             16 	(obj:0)
$_86_y                                             -4 	(obj:0)
$_86_z                                             15 	(obj:0)
$_82_y                                             -3 	(obj:0)
$_82_z                                             19 	(obj:0)
$_113_y                                            -3 	(obj:0)
$_113_z                                            16 	(obj:0)
$_3_y                                              -4 	(obj:0)
$_3_z                                              13 	(obj:0)
$_4_y                                              -3 	(obj:0)
$_4_z                                              12 	(obj:0)
$_114_y                                            -1 	(obj:0)
$_114_z                                            15 	(obj:0)
$_65_y                                             -1 	(obj:0)
$_65_z                                             16 	(obj:0)
$_90_z                                             17 	(obj:0)
$_84_y                                             -3 	(obj:0)
$_84_z                                             15 	(obj:0)
$_124_y                                            -1 	(obj:0)
$_124_z                                            18 	(obj:0)
